p cnf 10 40
9 2 -1 0
4 5 -10 0
3 -1 7 0
-7 3 5 0
-7 -6 -10 0
3 4 -9 0
10 7 -9 0
-8 -1 7 0
-8 1 -5 0
-7 -5 1 0
8 2 -3 0
2 4 7 0
-7 10 5 0
10 -5 -2 0
9 2 -6 0
9 -5 -10 0
2 3 -5 0
5 -1 7 0
8 9 5 0
-7 -1 6 0
4 -1 -10 0
8 1 2 0
9 -6 3 0
-8 10 6 0
1 -10 6 0
-2 -10 6 0
10 -1 7 0
-6 -4 7 0
6 -10 -9 0
10 5 -2 0
-7 10 -3 0
-8 -6 4 0
-4 -10 7 0
3 4 6 0
8 -7 -2 0
5 -10 7 0
9 -1 7 0
10 3 5 0
10 -3 7 0
8 -2 -1 0
